p cnf 1250 2881
1 0
2 0
3 0
4 0
5 0
6 0
7 0
8 0
9 0
10 0
-11 0
-12 0
-13 0
-14 0
-15 0
-16 0
-17 0
-18 0
-19 0
-20 0
21 22 0
23 22 0
-21 -23 -22 0
-1 22 -24 0
1 -22 -24 0
24 -22 -1 0
1 22 24 0
-24 0
25 26 0
27 26 0
-25 -27 -26 0
-23 26 -28 0
23 -26 -28 0
28 -26 -23 0
23 26 28 0
-28 0
29 30 0
31 30 0
-29 -31 -30 0
-27 30 -32 0
27 -30 -32 0
32 -30 -27 0
27 30 32 0
-32 0
33 34 0
35 34 0
-33 -35 -34 0
-31 34 -36 0
31 -34 -36 0
36 -34 -31 0
31 34 36 0
-36 0
37 38 0
39 38 0
-37 -39 -38 0
-35 38 -40 0
35 -38 -40 0
40 -38 -35 0
35 38 40 0
-40 0
41 42 0
43 42 0
-41 -43 -42 0
-39 42 -44 0
39 -42 -44 0
44 -42 -39 0
39 42 44 0
-44 0
45 46 0
47 46 0
-45 -47 -46 0
-43 46 -48 0
43 -46 -48 0
48 -46 -43 0
43 46 48 0
-48 0
49 50 0
51 50 0
-49 -51 -50 0
-47 50 -52 0
47 -50 -52 0
52 -50 -47 0
47 50 52 0
-52 0
53 54 0
55 54 0
-53 -55 -54 0
-51 54 -56 0
51 -54 -56 0
56 -54 -51 0
51 54 56 0
-56 0
37 57 0
41 57 0
45 57 0
49 57 0
53 57 0
58 57 0
-59 0
-55 57 -60 0
55 -57 -60 0
60 -57 -55 0
55 57 60 0
-60 0
61 62 0
63 62 0
-61 -63 -62 0
-2 62 -64 0
2 -62 -64 0
64 -62 -2 0
2 62 64 0
-64 0
65 66 0
67 66 0
-65 -67 -66 0
-63 66 -68 0
63 -66 -68 0
68 -66 -63 0
63 66 68 0
-68 0
69 70 0
71 70 0
-69 -71 -70 0
-67 70 -72 0
67 -70 -72 0
72 -70 -67 0
67 70 72 0
-72 0
73 74 0
75 74 0
-73 -75 -74 0
-71 74 -76 0
71 -74 -76 0
76 -74 -71 0
71 74 76 0
-76 0
77 78 0
79 78 0
-77 -79 -78 0
-75 78 -80 0
75 -78 -80 0
80 -78 -75 0
75 78 80 0
-80 0
81 82 0
83 82 0
-81 -83 -82 0
-79 82 -84 0
79 -82 -84 0
84 -82 -79 0
79 82 84 0
-84 0
85 86 0
87 86 0
-85 -87 -86 0
-83 86 -88 0
83 -86 -88 0
88 -86 -83 0
83 86 88 0
-88 0
89 90 0
91 90 0
-89 -91 -90 0
-87 90 -92 0
87 -90 -92 0
92 -90 -87 0
87 90 92 0
-92 0
93 94 0
95 94 0
-93 -95 -94 0
-91 94 -96 0
91 -94 -96 0
96 -94 -91 0
91 94 96 0
-96 0
97 98 0
99 98 0
-97 -99 -98 0
-95 98 -100 0
95 -98 -100 0
100 -98 -95 0
95 98 100 0
-100 0
81 101 0
85 101 0
89 101 0
93 101 0
97 101 0
102 101 0
-103 0
-99 101 -104 0
99 -101 -104 0
104 -101 -99 0
99 101 104 0
-104 0
105 106 0
107 106 0
-105 -107 -106 0
-3 106 -108 0
3 -106 -108 0
108 -106 -3 0
3 106 108 0
-108 0
109 110 0
111 110 0
-109 -111 -110 0
-107 110 -112 0
107 -110 -112 0
112 -110 -107 0
107 110 112 0
-112 0
113 114 0
115 114 0
-113 -115 -114 0
-111 114 -116 0
111 -114 -116 0
116 -114 -111 0
111 114 116 0
-116 0
117 118 0
119 118 0
-117 -119 -118 0
-115 118 -120 0
115 -118 -120 0
120 -118 -115 0
115 118 120 0
-120 0
121 122 0
123 122 0
-121 -123 -122 0
-119 122 -124 0
119 -122 -124 0
124 -122 -119 0
119 122 124 0
-124 0
125 126 0
127 126 0
-125 -127 -126 0
-123 126 -128 0
123 -126 -128 0
128 -126 -123 0
123 126 128 0
-128 0
117 129 0
121 129 0
125 129 0
130 129 0
-131 0
-127 129 -132 0
127 -129 -132 0
132 -129 -127 0
127 129 132 0
-132 0
133 134 0
135 134 0
-133 -135 -134 0
-4 134 -136 0
4 -134 -136 0
136 -134 -4 0
4 134 136 0
-136 0
137 138 0
139 138 0
-137 -139 -138 0
-135 138 -140 0
135 -138 -140 0
140 -138 -135 0
135 138 140 0
-140 0
141 142 0
143 142 0
-141 -143 -142 0
-139 142 -144 0
139 -142 -144 0
144 -142 -139 0
139 142 144 0
-144 0
145 146 0
147 146 0
-145 -147 -146 0
-143 146 -148 0
143 -146 -148 0
148 -146 -143 0
143 146 148 0
-148 0
149 150 0
151 150 0
-149 -151 -150 0
-147 150 -152 0
147 -150 -152 0
152 -150 -147 0
147 150 152 0
-152 0
153 154 0
155 154 0
-153 -155 -154 0
-151 154 -156 0
151 -154 -156 0
156 -154 -151 0
151 154 156 0
-156 0
157 158 0
159 158 0
-157 -159 -158 0
-155 158 -160 0
155 -158 -160 0
160 -158 -155 0
155 158 160 0
-160 0
161 162 0
163 162 0
-161 -163 -162 0
-159 162 -164 0
159 -162 -164 0
164 -162 -159 0
159 162 164 0
-164 0
165 166 0
167 166 0
-165 -167 -166 0
-163 166 -168 0
163 -166 -168 0
168 -166 -163 0
163 166 168 0
-168 0
153 169 0
157 169 0
161 169 0
165 169 0
170 169 0
-171 0
-167 169 -172 0
167 -169 -172 0
172 -169 -167 0
167 169 172 0
-172 0
173 174 0
175 174 0
-173 -175 -174 0
-5 174 -176 0
5 -174 -176 0
176 -174 -5 0
5 174 176 0
-176 0
177 178 0
179 178 0
-177 -179 -178 0
-175 178 -180 0
175 -178 -180 0
180 -178 -175 0
175 178 180 0
-180 0
181 182 0
183 182 0
-181 -183 -182 0
-179 182 -184 0
179 -182 -184 0
184 -182 -179 0
179 182 184 0
-184 0
185 186 0
187 186 0
-185 -187 -186 0
-183 186 -188 0
183 -186 -188 0
188 -186 -183 0
183 186 188 0
-188 0
189 190 0
191 190 0
-189 -191 -190 0
-187 190 -192 0
187 -190 -192 0
192 -190 -187 0
187 190 192 0
-192 0
193 194 0
195 194 0
-193 -195 -194 0
-191 194 -196 0
191 -194 -196 0
196 -194 -191 0
191 194 196 0
-196 0
197 198 0
199 198 0
-197 -199 -198 0
-195 198 -200 0
195 -198 -200 0
200 -198 -195 0
195 198 200 0
-200 0
201 202 0
203 202 0
-201 -203 -202 0
-199 202 -204 0
199 -202 -204 0
204 -202 -199 0
199 202 204 0
-204 0
205 206 0
207 206 0
-205 -207 -206 0
-203 206 -208 0
203 -206 -208 0
208 -206 -203 0
203 206 208 0
-208 0
189 209 0
193 209 0
197 209 0
201 209 0
205 209 0
210 209 0
-211 0
-207 209 -212 0
207 -209 -212 0
212 -209 -207 0
207 209 212 0
-212 0
213 214 0
215 214 0
-213 -215 -214 0
-6 214 -216 0
6 -214 -216 0
216 -214 -6 0
6 214 216 0
-216 0
217 218 0
219 218 0
-217 -219 -218 0
-215 218 -220 0
215 -218 -220 0
220 -218 -215 0
215 218 220 0
-220 0
221 222 0
223 222 0
-221 -223 -222 0
-219 222 -224 0
219 -222 -224 0
224 -222 -219 0
219 222 224 0
-224 0
225 226 0
227 226 0
-225 -227 -226 0
-223 226 -228 0
223 -226 -228 0
228 -226 -223 0
223 226 228 0
-228 0
229 230 0
231 230 0
-229 -231 -230 0
-227 230 -232 0
227 -230 -232 0
232 -230 -227 0
227 230 232 0
-232 0
233 234 0
235 234 0
-233 -235 -234 0
-231 234 -236 0
231 -234 -236 0
236 -234 -231 0
231 234 236 0
-236 0
237 238 0
239 238 0
-237 -239 -238 0
-235 238 -240 0
235 -238 -240 0
240 -238 -235 0
235 238 240 0
-240 0
241 242 0
243 242 0
-241 -243 -242 0
-239 242 -244 0
239 -242 -244 0
244 -242 -239 0
239 242 244 0
-244 0
245 246 0
247 246 0
-245 -247 -246 0
-243 246 -248 0
243 -246 -248 0
248 -246 -243 0
243 246 248 0
-248 0
233 249 0
237 249 0
241 249 0
245 249 0
250 249 0
-251 0
-247 249 -252 0
247 -249 -252 0
252 -249 -247 0
247 249 252 0
-252 0
253 254 0
255 254 0
-253 -255 -254 0
-7 254 -256 0
7 -254 -256 0
256 -254 -7 0
7 254 256 0
-256 0
257 258 0
259 258 0
-257 -259 -258 0
-255 258 -260 0
255 -258 -260 0
260 -258 -255 0
255 258 260 0
-260 0
261 262 0
263 262 0
-261 -263 -262 0
-259 262 -264 0
259 -262 -264 0
264 -262 -259 0
259 262 264 0
-264 0
265 266 0
267 266 0
-265 -267 -266 0
-263 266 -268 0
263 -266 -268 0
268 -266 -263 0
263 266 268 0
-268 0
123 269 0
270 269 0
-123 -270 -269 0
-267 269 -271 0
267 -269 -271 0
271 -269 -267 0
267 269 271 0
-271 0
272 273 0
274 273 0
-272 -274 -273 0
-8 273 -275 0
8 -273 -275 0
275 -273 -8 0
8 273 275 0
-275 0
276 277 0
278 277 0
-276 -278 -277 0
-274 277 -279 0
274 -277 -279 0
279 -277 -274 0
274 277 279 0
-279 0
280 281 0
282 281 0
-280 -282 -281 0
-278 281 -283 0
278 -281 -283 0
283 -281 -278 0
278 281 283 0
-283 0
284 285 0
286 285 0
-284 -286 -285 0
-282 285 -287 0
282 -285 -287 0
287 -285 -282 0
282 285 287 0
-287 0
39 288 0
289 288 0
-39 -289 -288 0
-286 288 -290 0
286 -288 -290 0
290 -288 -286 0
286 288 290 0
-290 0
291 292 0
293 292 0
-291 -293 -292 0
-9 292 -294 0
9 -292 -294 0
294 -292 -9 0
9 292 294 0
-294 0
295 296 0
297 296 0
-295 -297 -296 0
-293 296 -298 0
293 -296 -298 0
298 -296 -293 0
293 296 298 0
-298 0
299 300 0
301 300 0
-299 -301 -300 0
-297 300 -302 0
297 -300 -302 0
302 -300 -297 0
297 300 302 0
-302 0
303 304 0
305 304 0
-303 -305 -304 0
-301 304 -306 0
301 -304 -306 0
306 -304 -301 0
301 304 306 0
-306 0
307 308 0
309 308 0
-307 -309 -308 0
-305 308 -310 0
305 -308 -310 0
310 -308 -305 0
305 308 310 0
-310 0
307 311 0
312 311 0
-307 -312 -311 0
-309 311 -313 0
309 -311 -313 0
313 -311 -309 0
309 311 313 0
-313 0
314 315 0
316 315 0
-314 -316 -315 0
-10 315 -317 0
10 -315 -317 0
317 -315 -10 0
10 315 317 0
-317 0
318 319 0
320 319 0
-318 -320 -319 0
-316 319 -321 0
316 -319 -321 0
321 -319 -316 0
316 319 321 0
-321 0
207 322 0
323 322 0
-207 -323 -322 0
-320 322 -324 0
320 -322 -324 0
324 -322 -320 0
320 322 324 0
-324 0
325 326 0
327 326 0
-325 -327 -326 0
-11 326 -328 0
11 -326 -328 0
328 -326 -11 0
11 326 328 0
-328 0
329 330 0
331 330 0
-329 -331 -330 0
-327 330 -332 0
327 -330 -332 0
332 -330 -327 0
327 330 332 0
-332 0
333 334 0
335 334 0
-333 -335 -334 0
-331 334 -336 0
331 -334 -336 0
336 -334 -331 0
331 334 336 0
-336 0
337 338 0
339 338 0
-337 -339 -338 0
-335 338 -340 0
335 -338 -340 0
340 -338 -335 0
335 338 340 0
-340 0
341 342 0
343 342 0
-341 -343 -342 0
-339 342 -344 0
339 -342 -344 0
344 -342 -339 0
339 342 344 0
-344 0
345 346 0
347 346 0
-345 -347 -346 0
-343 346 -348 0
343 -346 -348 0
348 -346 -343 0
343 346 348 0
-348 0
349 350 0
351 350 0
-349 -351 -350 0
-347 350 -352 0
347 -350 -352 0
352 -350 -347 0
347 350 352 0
-352 0
353 354 0
355 354 0
-353 -355 -354 0
-351 354 -356 0
351 -354 -356 0
356 -354 -351 0
351 354 356 0
-356 0
357 358 0
359 358 0
-357 -359 -358 0
-355 358 -360 0
355 -358 -360 0
360 -358 -355 0
355 358 360 0
-360 0
341 361 0
345 361 0
349 361 0
353 361 0
357 361 0
362 361 0
-363 0
-359 361 -364 0
359 -361 -364 0
364 -361 -359 0
359 361 364 0
-364 0
365 366 0
367 366 0
-365 -367 -366 0
-12 366 -368 0
12 -366 -368 0
368 -366 -12 0
12 366 368 0
-368 0
369 370 0
371 370 0
-369 -371 -370 0
-367 370 -372 0
367 -370 -372 0
372 -370 -367 0
367 370 372 0
-372 0
373 374 0
375 374 0
-373 -375 -374 0
-371 374 -376 0
371 -374 -376 0
376 -374 -371 0
371 374 376 0
-376 0
377 378 0
379 378 0
-377 -379 -378 0
-375 378 -380 0
375 -378 -380 0
380 -378 -375 0
375 378 380 0
-380 0
381 382 0
383 382 0
-381 -383 -382 0
-379 382 -384 0
379 -382 -384 0
384 -382 -379 0
379 382 384 0
-384 0
385 386 0
387 386 0
-385 -387 -386 0
-383 386 -388 0
383 -386 -388 0
388 -386 -383 0
383 386 388 0
-388 0
389 390 0
391 390 0
-389 -391 -390 0
-387 390 -392 0
387 -390 -392 0
392 -390 -387 0
387 390 392 0
-392 0
393 394 0
395 394 0
-393 -395 -394 0
-391 394 -396 0
391 -394 -396 0
396 -394 -391 0
391 394 396 0
-396 0
397 398 0
399 398 0
-397 -399 -398 0
-395 398 -400 0
395 -398 -400 0
400 -398 -395 0
395 398 400 0
-400 0
385 401 0
389 401 0
393 401 0
397 401 0
402 401 0
-403 0
-399 401 -404 0
399 -401 -404 0
404 -401 -399 0
399 401 404 0
-404 0
405 406 0
407 406 0
-405 -407 -406 0
-13 406 -408 0
13 -406 -408 0
408 -406 -13 0
13 406 408 0
-408 0
409 410 0
411 410 0
-409 -411 -410 0
-407 410 -412 0
407 -410 -412 0
412 -410 -407 0
407 410 412 0
-412 0
413 414 0
415 414 0
-413 -415 -414 0
-411 414 -416 0
411 -414 -416 0
416 -414 -411 0
411 414 416 0
-416 0
417 418 0
419 418 0
-417 -419 -418 0
-415 418 -420 0
415 -418 -420 0
420 -418 -415 0
415 418 420 0
-420 0
421 422 0
423 422 0
-421 -423 -422 0
-419 422 -424 0
419 -422 -424 0
424 -422 -419 0
419 422 424 0
-424 0
425 426 0
427 426 0
-425 -427 -426 0
-423 426 -428 0
423 -426 -428 0
428 -426 -423 0
423 426 428 0
-428 0
429 430 0
431 430 0
-429 -431 -430 0
-427 430 -432 0
427 -430 -432 0
432 -430 -427 0
427 430 432 0
-432 0
433 434 0
435 434 0
-433 -435 -434 0
-431 434 -436 0
431 -434 -436 0
436 -434 -431 0
431 434 436 0
-436 0
437 438 0
439 438 0
-437 -439 -438 0
-435 438 -440 0
435 -438 -440 0
440 -438 -435 0
435 438 440 0
-440 0
441 442 0
443 442 0
-441 -443 -442 0
-439 442 -444 0
439 -442 -444 0
444 -442 -439 0
439 442 444 0
-444 0
425 445 0
429 445 0
433 445 0
437 445 0
441 445 0
446 445 0
-447 0
-443 445 -448 0
443 -445 -448 0
448 -445 -443 0
443 445 448 0
-448 0
449 450 0
451 450 0
-449 -451 -450 0
-14 450 -452 0
14 -450 -452 0
452 -450 -14 0
14 450 452 0
-452 0
453 454 0
455 454 0
-453 -455 -454 0
-451 454 -456 0
451 -454 -456 0
456 -454 -451 0
451 454 456 0
-456 0
457 458 0
459 458 0
-457 -459 -458 0
-455 458 -460 0
455 -458 -460 0
460 -458 -455 0
455 458 460 0
-460 0
461 462 0
463 462 0
-461 -463 -462 0
-459 462 -464 0
459 -462 -464 0
464 -462 -459 0
459 462 464 0
-464 0
465 466 0
467 466 0
-465 -467 -466 0
-463 466 -468 0
463 -466 -468 0
468 -466 -463 0
463 466 468 0
-468 0
469 470 0
471 470 0
-469 -471 -470 0
-467 470 -472 0
467 -470 -472 0
472 -470 -467 0
467 470 472 0
-472 0
473 474 0
475 474 0
-473 -475 -474 0
-471 474 -476 0
471 -474 -476 0
476 -474 -471 0
471 474 476 0
-476 0
477 478 0
479 478 0
-477 -479 -478 0
-475 478 -480 0
475 -478 -480 0
480 -478 -475 0
475 478 480 0
-480 0
469 481 0
473 481 0
477 481 0
482 481 0
-483 0
-479 481 -484 0
479 -481 -484 0
484 -481 -479 0
479 481 484 0
-484 0
485 486 0
487 486 0
-485 -487 -486 0
-15 486 -488 0
15 -486 -488 0
488 -486 -15 0
15 486 488 0
-488 0
489 490 0
491 490 0
-489 -491 -490 0
-487 490 -492 0
487 -490 -492 0
492 -490 -487 0
487 490 492 0
-492 0
493 494 0
495 494 0
-493 -495 -494 0
-491 494 -496 0
491 -494 -496 0
496 -494 -491 0
491 494 496 0
-496 0
497 498 0
499 498 0
-497 -499 -498 0
-495 498 -500 0
495 -498 -500 0
500 -498 -495 0
495 498 500 0
-500 0
501 502 0
503 502 0
-501 -503 -502 0
-499 502 -504 0
499 -502 -504 0
504 -502 -499 0
499 502 504 0
-504 0
505 506 0
507 506 0
-505 -507 -506 0
-503 506 -508 0
503 -506 -508 0
508 -506 -503 0
503 506 508 0
-508 0
509 510 0
511 510 0
-509 -511 -510 0
-507 510 -512 0
507 -510 -512 0
512 -510 -507 0
507 510 512 0
-512 0
509 513 0
514 513 0
-509 -514 -513 0
-511 513 -515 0
511 -513 -515 0
515 -513 -511 0
511 513 515 0
-515 0
516 517 0
518 517 0
-516 -518 -517 0
-16 517 -519 0
16 -517 -519 0
519 -517 -16 0
16 517 519 0
-519 0
520 521 0
522 521 0
-520 -522 -521 0
-518 521 -523 0
518 -521 -523 0
523 -521 -518 0
518 521 523 0
-523 0
524 525 0
526 525 0
-524 -526 -525 0
-522 525 -527 0
522 -525 -527 0
527 -525 -522 0
522 525 527 0
-527 0
528 529 0
530 529 0
-528 -530 -529 0
-526 529 -531 0
526 -529 -531 0
531 -529 -526 0
526 529 531 0
-531 0
532 533 0
534 533 0
-532 -534 -533 0
-530 533 -535 0
530 -533 -535 0
535 -533 -530 0
530 533 535 0
-535 0
536 537 0
538 537 0
-536 -538 -537 0
-534 537 -539 0
534 -537 -539 0
539 -537 -534 0
534 537 539 0
-539 0
540 541 0
542 541 0
-540 -542 -541 0
-538 541 -543 0
538 -541 -543 0
543 -541 -538 0
538 541 543 0
-543 0
544 545 0
546 545 0
-544 -546 -545 0
-542 545 -547 0
542 -545 -547 0
547 -545 -542 0
542 545 547 0
-547 0
532 548 0
536 548 0
540 548 0
544 548 0
549 548 0
-550 0
-546 548 -551 0
546 -548 -551 0
551 -548 -546 0
546 548 551 0
-551 0
552 553 0
554 553 0
-552 -554 -553 0
-17 553 -555 0
17 -553 -555 0
555 -553 -17 0
17 553 555 0
-555 0
556 557 0
558 557 0
-556 -558 -557 0
-554 557 -559 0
554 -557 -559 0
559 -557 -554 0
554 557 559 0
-559 0
560 561 0
562 561 0
-560 -562 -561 0
-558 561 -563 0
558 -561 -563 0
563 -561 -558 0
558 561 563 0
-563 0
564 565 0
566 565 0
-564 -566 -565 0
-562 565 -567 0
562 -565 -567 0
567 -565 -562 0
562 565 567 0
-567 0
568 569 0
570 569 0
-568 -570 -569 0
-566 569 -571 0
566 -569 -571 0
571 -569 -566 0
566 569 571 0
-571 0
572 573 0
574 573 0
-572 -574 -573 0
-570 573 -575 0
570 -573 -575 0
575 -573 -570 0
570 573 575 0
-575 0
576 577 0
578 577 0
-576 -578 -577 0
-574 577 -579 0
574 -577 -579 0
579 -577 -574 0
574 577 579 0
-579 0
580 581 0
582 581 0
-580 -582 -581 0
-578 581 -583 0
578 -581 -583 0
583 -581 -578 0
578 581 583 0
-583 0
584 585 0
586 585 0
-584 -586 -585 0
-582 585 -587 0
582 -585 -587 0
587 -585 -582 0
582 585 587 0
-587 0
588 589 0
590 589 0
-588 -590 -589 0
-586 589 -591 0
586 -589 -591 0
591 -589 -586 0
586 589 591 0
-591 0
576 592 0
580 592 0
584 592 0
588 592 0
593 592 0
-594 0
-590 592 -595 0
590 -592 -595 0
595 -592 -590 0
590 592 595 0
-595 0
596 597 0
598 597 0
-596 -598 -597 0
-18 597 -599 0
18 -597 -599 0
599 -597 -18 0
18 597 599 0
-599 0
600 601 0
602 601 0
-600 -602 -601 0
-598 601 -603 0
598 -601 -603 0
603 -601 -598 0
598 601 603 0
-603 0
604 605 0
606 605 0
-604 -606 -605 0
-602 605 -607 0
602 -605 -607 0
607 -605 -602 0
602 605 607 0
-607 0
608 609 0
610 609 0
-608 -610 -609 0
-606 609 -611 0
606 -609 -611 0
611 -609 -606 0
606 609 611 0
-611 0
612 613 0
614 613 0
-612 -614 -613 0
-610 613 -615 0
610 -613 -615 0
615 -613 -610 0
610 613 615 0
-615 0
616 617 0
618 617 0
-616 -618 -617 0
-614 617 -619 0
614 -617 -619 0
619 -617 -614 0
614 617 619 0
-619 0
620 621 0
622 621 0
-620 -622 -621 0
-618 621 -623 0
618 -621 -623 0
623 -621 -618 0
618 621 623 0
-623 0
624 625 0
626 625 0
-624 -626 -625 0
-622 625 -627 0
622 -625 -627 0
627 -625 -622 0
622 625 627 0
-627 0
608 628 0
612 628 0
616 628 0
620 628 0
624 628 0
629 628 0
-630 0
-626 628 -631 0
626 -628 -631 0
631 -628 -626 0
626 628 631 0
-631 0
632 633 0
634 633 0
-632 -634 -633 0
-19 633 -635 0
19 -633 -635 0
635 -633 -19 0
19 633 635 0
-635 0
636 637 0
638 637 0
-636 -638 -637 0
-634 637 -639 0
634 -637 -639 0
639 -637 -634 0
634 637 639 0
-639 0
640 641 0
642 641 0
-640 -642 -641 0
-638 641 -643 0
638 -641 -643 0
643 -641 -638 0
638 641 643 0
-643 0
644 645 0
646 645 0
-644 -646 -645 0
-642 645 -647 0
642 -645 -647 0
647 -645 -642 0
642 645 647 0
-647 0
648 649 0
650 649 0
-648 -650 -649 0
-646 649 -651 0
646 -649 -651 0
651 -649 -646 0
646 649 651 0
-651 0
652 653 0
654 653 0
-652 -654 -653 0
-650 653 -655 0
650 -653 -655 0
655 -653 -650 0
650 653 655 0
-655 0
656 657 0
658 657 0
-656 -658 -657 0
-654 657 -659 0
654 -657 -659 0
659 -657 -654 0
654 657 659 0
-659 0
660 661 0
662 661 0
-660 -662 -661 0
-658 661 -663 0
658 -661 -663 0
663 -661 -658 0
658 661 663 0
-663 0
664 665 0
666 665 0
-664 -666 -665 0
-662 665 -667 0
662 -665 -667 0
667 -665 -662 0
662 665 667 0
-667 0
668 669 0
670 669 0
-668 -670 -669 0
-666 669 -671 0
666 -669 -671 0
671 -669 -666 0
666 669 671 0
-671 0
652 672 0
656 672 0
660 672 0
664 672 0
668 672 0
673 672 0
-674 0
-670 672 -675 0
670 -672 -675 0
675 -672 -670 0
670 672 675 0
-675 0
676 677 0
678 677 0
-676 -678 -677 0
-20 677 -679 0
20 -677 -679 0
679 -677 -20 0
20 677 679 0
-679 0
680 681 0
682 681 0
-680 -682 -681 0
-678 681 -683 0
678 -681 -683 0
683 -681 -678 0
678 681 683 0
-683 0
684 685 0
686 685 0
-684 -686 -685 0
-682 685 -687 0
682 -685 -687 0
687 -685 -682 0
682 685 687 0
-687 0
688 689 0
690 689 0
-688 -690 -689 0
-686 689 -691 0
686 -689 -691 0
691 -689 -686 0
686 689 691 0
-691 0
692 693 0
694 693 0
-692 -694 -693 0
-690 693 -695 0
690 -693 -695 0
695 -693 -690 0
690 693 695 0
-695 0
696 697 0
698 697 0
-696 -698 -697 0
-694 697 -699 0
694 -697 -699 0
699 -697 -694 0
694 697 699 0
-699 0
700 701 0
702 701 0
-700 -702 -701 0
-698 701 -703 0
698 -701 -703 0
703 -701 -698 0
698 701 703 0
-703 0
704 705 0
706 705 0
-704 -706 -705 0
-702 705 -707 0
702 -705 -707 0
707 -705 -702 0
702 705 707 0
-707 0
708 709 0
710 709 0
-708 -710 -709 0
-706 709 -711 0
706 -709 -711 0
711 -709 -706 0
706 709 711 0
-711 0
692 712 0
696 712 0
700 712 0
704 712 0
708 712 0
713 712 0
-714 0
-710 712 -715 0
710 -712 -715 0
715 -712 -710 0
710 712 715 0
-715 0
716 717 0
-718 717 0
-716 718 -717 0
21 -717 0
-21 717 0
719 720 0
-721 720 0
-719 721 -720 0
25 -720 0
-25 720 0
722 723 0
-724 723 0
-722 724 -723 0
29 -723 0
-29 723 0
725 726 0
726 -727 0
-725 727 -726 0
33 -726 0
-33 726 0
728 729 0
-730 729 0
-728 730 -729 0
37 -729 0
-37 729 0
731 732 0
732 -733 0
-731 733 -732 0
41 -732 0
-41 732 0
734 735 0
735 -736 0
-734 736 -735 0
45 -735 0
-45 735 0
737 738 0
738 -739 0
-737 739 -738 0
49 -738 0
-49 738 0
740 741 0
741 -742 0
-740 742 -741 0
53 -741 0
-53 741 0
743 744 0
-745 744 0
-743 745 -744 0
58 -744 0
-58 744 0
746 747 0
-748 747 0
-746 748 -747 0
61 -747 0
-61 747 0
749 750 0
-751 750 0
-749 751 -750 0
65 -750 0
-65 750 0
752 753 0
-754 753 0
-752 754 -753 0
69 -753 0
-69 753 0
755 756 0
-757 756 0
-755 757 -756 0
73 -756 0
-73 756 0
758 759 0
759 -760 0
-758 760 -759 0
77 -759 0
-77 759 0
761 762 0
762 -763 0
-761 763 -762 0
81 -762 0
-81 762 0
764 765 0
765 -766 0
-764 766 -765 0
85 -765 0
-85 765 0
767 768 0
-769 768 0
-767 769 -768 0
89 -768 0
-89 768 0
770 771 0
-772 771 0
-770 772 -771 0
93 -771 0
-93 771 0
773 774 0
-775 774 0
-773 775 -774 0
97 -774 0
-97 774 0
776 777 0
-778 777 0
-776 778 -777 0
102 -777 0
-102 777 0
779 780 0
-781 780 0
-779 781 -780 0
105 -780 0
-105 780 0
782 783 0
-784 783 0
-782 784 -783 0
109 -783 0
-109 783 0
785 786 0
-787 786 0
-785 787 -786 0
113 -786 0
-113 786 0
788 789 0
789 -790 0
-788 790 -789 0
117 -789 0
-117 789 0
791 792 0
-793 792 0
-791 793 -792 0
121 -792 0
-121 792 0
794 795 0
795 -796 0
-794 796 -795 0
125 -795 0
-125 795 0
797 798 0
798 -799 0
-797 799 -798 0
130 -798 0
-130 798 0
800 801 0
-802 801 0
-800 802 -801 0
133 -801 0
-133 801 0
803 804 0
-805 804 0
-803 805 -804 0
137 -804 0
-137 804 0
806 807 0
807 -808 0
-806 808 -807 0
141 -807 0
-141 807 0
809 810 0
-811 810 0
-809 811 -810 0
145 -810 0
-145 810 0
812 813 0
-814 813 0
-812 814 -813 0
149 -813 0
-149 813 0
815 816 0
-817 816 0
-815 817 -816 0
153 -816 0
-153 816 0
818 819 0
-820 819 0
-818 820 -819 0
157 -819 0
-157 819 0
821 822 0
-823 822 0
-821 823 -822 0
161 -822 0
-161 822 0
824 825 0
825 -826 0
-824 826 -825 0
165 -825 0
-165 825 0
827 828 0
828 -829 0
-827 829 -828 0
170 -828 0
-170 828 0
830 831 0
-832 831 0
-830 832 -831 0
173 -831 0
-173 831 0
833 834 0
-835 834 0
-833 835 -834 0
177 -834 0
-177 834 0
836 837 0
-838 837 0
-836 838 -837 0
181 -837 0
-181 837 0
839 840 0
840 -841 0
-839 841 -840 0
185 -840 0
-185 840 0
842 843 0
843 -844 0
-842 844 -843 0
189 -843 0
-189 843 0
845 846 0
-847 846 0
-845 847 -846 0
193 -846 0
-193 846 0
848 849 0
849 -850 0
-848 850 -849 0
197 -849 0
-197 849 0
851 852 0
-853 852 0
-851 853 -852 0
201 -852 0
-201 852 0
854 855 0
-856 855 0
-854 856 -855 0
205 -855 0
-205 855 0
857 858 0
-859 858 0
-857 859 -858 0
210 -858 0
-210 858 0
860 861 0
-862 861 0
-860 862 -861 0
213 -861 0
-213 861 0
863 864 0
-865 864 0
-863 865 -864 0
217 -864 0
-217 864 0
866 867 0
867 -868 0
-866 868 -867 0
221 -867 0
-221 867 0
869 870 0
870 -871 0
-869 871 -870 0
225 -870 0
-225 870 0
872 873 0
873 -874 0
-872 874 -873 0
229 -873 0
-229 873 0
875 876 0
-877 876 0
-875 877 -876 0
233 -876 0
-233 876 0
878 879 0
879 -880 0
-878 880 -879 0
237 -879 0
-237 879 0
881 882 0
-883 882 0
-881 883 -882 0
241 -882 0
-241 882 0
884 885 0
-886 885 0
-884 886 -885 0
245 -885 0
-245 885 0
887 888 0
-889 888 0
-887 889 -888 0
250 -888 0
-250 888 0
890 891 0
-892 891 0
-890 892 -891 0
253 -891 0
-253 891 0
893 894 0
894 -895 0
-893 895 -894 0
257 -894 0
-257 894 0
896 897 0
-898 897 0
-896 898 -897 0
261 -897 0
-261 897 0
899 900 0
-901 900 0
-899 901 -900 0
265 -900 0
-265 900 0
902 903 0
903 -904 0
-902 904 -903 0
270 -903 0
-270 903 0
905 906 0
906 -907 0
-905 907 -906 0
272 -906 0
-272 906 0
908 909 0
-910 909 0
-908 910 -909 0
276 -909 0
-276 909 0
911 912 0
912 -913 0
-911 913 -912 0
280 -912 0
-280 912 0
914 915 0
915 -916 0
-914 916 -915 0
284 -915 0
-284 915 0
917 918 0
918 -919 0
-917 919 -918 0
289 -918 0
-289 918 0
920 921 0
-922 921 0
-920 922 -921 0
291 -921 0
-291 921 0
923 924 0
-925 924 0
-923 925 -924 0
295 -924 0
-295 924 0
926 927 0
-928 927 0
-926 928 -927 0
299 -927 0
-299 927 0
929 930 0
-931 930 0
-929 931 -930 0
303 -930 0
-303 930 0
932 933 0
933 -934 0
-932 934 -933 0
307 -933 0
-307 933 0
935 936 0
-937 936 0
-935 937 -936 0
312 -936 0
-312 936 0
938 939 0
939 -940 0
-938 940 -939 0
314 -939 0
-314 939 0
941 942 0
-943 942 0
-941 943 -942 0
318 -942 0
-318 942 0
944 945 0
945 -946 0
-944 946 -945 0
323 -945 0
-323 945 0
947 948 0
948 -949 0
-947 949 -948 0
325 -948 0
-325 948 0
950 951 0
-952 951 0
-950 952 -951 0
329 -951 0
-329 951 0
953 954 0
954 -955 0
-953 955 -954 0
333 -954 0
-333 954 0
956 957 0
-958 957 0
-956 958 -957 0
337 -957 0
-337 957 0
959 960 0
-961 960 0
-959 961 -960 0
341 -960 0
-341 960 0
962 963 0
-964 963 0
-962 964 -963 0
345 -963 0
-345 963 0
965 966 0
966 -967 0
-965 967 -966 0
349 -966 0
-349 966 0
968 969 0
-970 969 0
-968 970 -969 0
353 -969 0
-353 969 0
971 972 0
-973 972 0
-971 973 -972 0
357 -972 0
-357 972 0
974 975 0
-976 975 0
-974 976 -975 0
362 -975 0
-362 975 0
977 978 0
978 -979 0
-977 979 -978 0
365 -978 0
-365 978 0
980 981 0
-982 981 0
-980 982 -981 0
369 -981 0
-369 981 0
983 984 0
-985 984 0
-983 985 -984 0
373 -984 0
-373 984 0
986 987 0
-988 987 0
-986 988 -987 0
377 -987 0
-377 987 0
989 990 0
-991 990 0
-989 991 -990 0
381 -990 0
-381 990 0
992 993 0
-994 993 0
-992 994 -993 0
385 -993 0
-385 993 0
995 996 0
-997 996 0
-995 997 -996 0
389 -996 0
-389 996 0
998 999 0
999 -1000 0
-998 1000 -999 0
393 -999 0
-393 999 0
1001 1002 0
-1003 1002 0
-1001 1003 -1002 0
397 -1002 0
-397 1002 0
1004 1005 0
1005 -1006 0
-1004 1006 -1005 0
402 -1005 0
-402 1005 0
1007 1008 0
1008 -1009 0
-1007 1009 -1008 0
405 -1008 0
-405 1008 0
1010 1011 0
-1012 1011 0
-1010 1012 -1011 0
409 -1011 0
-409 1011 0
1013 1014 0
-1015 1014 0
-1013 1015 -1014 0
413 -1014 0
-413 1014 0
1016 1017 0
-1018 1017 0
-1016 1018 -1017 0
417 -1017 0
-417 1017 0
1019 1020 0
-1021 1020 0
-1019 1021 -1020 0
421 -1020 0
-421 1020 0
1022 1023 0
-1024 1023 0
-1022 1024 -1023 0
425 -1023 0
-425 1023 0
1025 1026 0
1026 -1027 0
-1025 1027 -1026 0
429 -1026 0
-429 1026 0
1028 1029 0
1029 -1030 0
-1028 1030 -1029 0
433 -1029 0
-433 1029 0
1031 1032 0
1032 -1033 0
-1031 1033 -1032 0
437 -1032 0
-437 1032 0
1034 1035 0
-1036 1035 0
-1034 1036 -1035 0
441 -1035 0
-441 1035 0
1037 1038 0
-1039 1038 0
-1037 1039 -1038 0
446 -1038 0
-446 1038 0
1040 1041 0
-1042 1041 0
-1040 1042 -1041 0
449 -1041 0
-449 1041 0
1043 1044 0
-1045 1044 0
-1043 1045 -1044 0
453 -1044 0
-453 1044 0
1046 1047 0
-1048 1047 0
-1046 1048 -1047 0
457 -1047 0
-457 1047 0
1049 1050 0
-1051 1050 0
-1049 1051 -1050 0
461 -1050 0
-461 1050 0
1052 1053 0
1053 -1054 0
-1052 1054 -1053 0
465 -1053 0
-465 1053 0
1055 1056 0
-1057 1056 0
-1055 1057 -1056 0
469 -1056 0
-469 1056 0
1058 1059 0
-1060 1059 0
-1058 1060 -1059 0
473 -1059 0
-473 1059 0
1061 1062 0
-1063 1062 0
-1061 1063 -1062 0
477 -1062 0
-477 1062 0
1064 1065 0
-1066 1065 0
-1064 1066 -1065 0
482 -1065 0
-482 1065 0
1067 1068 0
-1069 1068 0
-1067 1069 -1068 0
485 -1068 0
-485 1068 0
1070 1071 0
-1072 1071 0
-1070 1072 -1071 0
489 -1071 0
-489 1071 0
1073 1074 0
-1075 1074 0
-1073 1075 -1074 0
493 -1074 0
-493 1074 0
1076 1077 0
-1078 1077 0
-1076 1078 -1077 0
497 -1077 0
-497 1077 0
1079 1080 0
1080 -1081 0
-1079 1081 -1080 0
501 -1080 0
-501 1080 0
1082 1083 0
-1084 1083 0
-1082 1084 -1083 0
505 -1083 0
-505 1083 0
1085 1086 0
-1087 1086 0
-1085 1087 -1086 0
509 -1086 0
-509 1086 0
1088 1089 0
1089 -1090 0
-1088 1090 -1089 0
514 -1089 0
-514 1089 0
1091 1092 0
-1093 1092 0
-1091 1093 -1092 0
516 -1092 0
-516 1092 0
1094 1095 0
-1096 1095 0
-1094 1096 -1095 0
520 -1095 0
-520 1095 0
1097 1098 0
1098 -1099 0
-1097 1099 -1098 0
524 -1098 0
-524 1098 0
1100 1101 0
1101 -1102 0
-1100 1102 -1101 0
528 -1101 0
-528 1101 0
1103 1104 0
-1105 1104 0
-1103 1105 -1104 0
532 -1104 0
-532 1104 0
1106 1107 0
-1108 1107 0
-1106 1108 -1107 0
536 -1107 0
-536 1107 0
1109 1110 0
-1111 1110 0
-1109 1111 -1110 0
540 -1110 0
-540 1110 0
1112 1113 0
-1114 1113 0
-1112 1114 -1113 0
544 -1113 0
-544 1113 0
1115 1116 0
-1117 1116 0
-1115 1117 -1116 0
549 -1116 0
-549 1116 0
1118 1119 0
-1120 1119 0
-1118 1120 -1119 0
552 -1119 0
-552 1119 0
1121 1122 0
1122 -1123 0
-1121 1123 -1122 0
556 -1122 0
-556 1122 0
1124 1125 0
-1126 1125 0
-1124 1126 -1125 0
560 -1125 0
-560 1125 0
1127 1128 0
1128 -1129 0
-1127 1129 -1128 0
564 -1128 0
-564 1128 0
1130 1131 0
1131 -1132 0
-1130 1132 -1131 0
568 -1131 0
-568 1131 0
1133 1134 0
-1135 1134 0
-1133 1135 -1134 0
572 -1134 0
-572 1134 0
1136 1137 0
-1138 1137 0
-1136 1138 -1137 0
576 -1137 0
-576 1137 0
1139 1140 0
-1141 1140 0
-1139 1141 -1140 0
580 -1140 0
-580 1140 0
1142 1143 0
1143 -1144 0
-1142 1144 -1143 0
584 -1143 0
-584 1143 0
1145 1146 0
1146 -1147 0
-1145 1147 -1146 0
588 -1146 0
-588 1146 0
1148 1149 0
-1150 1149 0
-1148 1150 -1149 0
593 -1149 0
-593 1149 0
1151 1152 0
-1153 1152 0
-1151 1153 -1152 0
596 -1152 0
-596 1152 0
1154 1155 0
-1156 1155 0
-1154 1156 -1155 0
600 -1155 0
-600 1155 0
1157 1158 0
1158 -1159 0
-1157 1159 -1158 0
604 -1158 0
-604 1158 0
1160 1161 0
-1162 1161 0
-1160 1162 -1161 0
608 -1161 0
-608 1161 0
1163 1164 0
1164 -1165 0
-1163 1165 -1164 0
612 -1164 0
-612 1164 0
1166 1167 0
-1168 1167 0
-1166 1168 -1167 0
616 -1167 0
-616 1167 0
1169 1170 0
-1171 1170 0
-1169 1171 -1170 0
620 -1170 0
-620 1170 0
1172 1173 0
-1174 1173 0
-1172 1174 -1173 0
624 -1173 0
-624 1173 0
1175 1176 0
-1177 1176 0
-1175 1177 -1176 0
629 -1176 0
-629 1176 0
1178 1179 0
-1180 1179 0
-1178 1180 -1179 0
632 -1179 0
-632 1179 0
1181 1182 0
-1183 1182 0
-1181 1183 -1182 0
636 -1182 0
-636 1182 0
1184 1185 0
-1186 1185 0
-1184 1186 -1185 0
640 -1185 0
-640 1185 0
1187 1188 0
-1189 1188 0
-1187 1189 -1188 0
644 -1188 0
-644 1188 0
1190 1191 0
-1192 1191 0
-1190 1192 -1191 0
648 -1191 0
-648 1191 0
1193 1194 0
-1195 1194 0
-1193 1195 -1194 0
652 -1194 0
-652 1194 0
1196 1197 0
-1198 1197 0
-1196 1198 -1197 0
656 -1197 0
-656 1197 0
1199 1200 0
-1201 1200 0
-1199 1201 -1200 0
660 -1200 0
-660 1200 0
1202 1203 0
1203 -1204 0
-1202 1204 -1203 0
664 -1203 0
-664 1203 0
1205 1206 0
-1207 1206 0
-1205 1207 -1206 0
668 -1206 0
-668 1206 0
1208 1209 0
-1210 1209 0
-1208 1210 -1209 0
673 -1209 0
-673 1209 0
1211 1212 0
-1213 1212 0
-1211 1213 -1212 0
676 -1212 0
-676 1212 0
1214 1215 0
-1216 1215 0
-1214 1216 -1215 0
680 -1215 0
-680 1215 0
1217 1218 0
1218 -1219 0
-1217 1219 -1218 0
684 -1218 0
-684 1218 0
1220 1221 0
-1222 1221 0
-1220 1222 -1221 0
688 -1221 0
-688 1221 0
1223 1224 0
-1225 1224 0
-1223 1225 -1224 0
692 -1224 0
-692 1224 0
1226 1227 0
-1228 1227 0
-1226 1228 -1227 0
696 -1227 0
-696 1227 0
1229 1230 0
1230 -1231 0
-1229 1231 -1230 0
700 -1230 0
-700 1230 0
1232 1233 0
-1234 1233 0
-1232 1234 -1233 0
704 -1233 0
-704 1233 0
1235 1236 0
-1237 1236 0
-1235 1237 -1236 0
708 -1236 0
-708 1236 0
1238 1239 0
1239 -1240 0
-1238 1240 -1239 0
713 -1239 0
-713 1239 0
-716 0
-719 0
-722 0
725 0
-728 0
731 0
734 0
737 0
740 0
-743 0
-746 0
-749 0
-752 0
-755 0
758 0
761 0
764 0
-767 0
-770 0
-773 0
-776 0
-779 0
-782 0
-785 0
788 0
-791 0
794 0
797 0
-800 0
-803 0
806 0
-809 0
-812 0
-815 0
-818 0
-821 0
824 0
827 0
-830 0
-833 0
-836 0
839 0
842 0
-845 0
848 0
-851 0
-854 0
-857 0
-860 0
-863 0
866 0
869 0
872 0
-875 0
878 0
-881 0
-884 0
-887 0
-890 0
893 0
-896 0
-899 0
902 0
905 0
-908 0
911 0
914 0
917 0
-920 0
-923 0
-926 0
-929 0
932 0
-935 0
938 0
-941 0
944 0
947 0
-950 0
953 0
-956 0
-959 0
962 0
965 0
968 0
971 0
-974 0
977 0
-980 0
-983 0
-986 0
989 0
-992 0
-995 0
998 0
-1001 0
1004 0
1007 0
1010 0
1013 0
1016 0
-1019 0
1022 0
1025 0
1028 0
1031 0
-1034 0
1037 0
-1040 0
1043 0
1046 0
1049 0
1052 0
-1055 0
1058 0
1061 0
-1064 0
-1067 0
-1070 0
1073 0
-1076 0
1079 0
-1082 0
-1085 0
1088 0
1091 0
1094 0
1097 0
1100 0
-1103 0
-1106 0
-1109 0
1112 0
-1115 0
-1118 0
1121 0
1124 0
1127 0
1130 0
-1133 0
1136 0
1139 0
1142 0
1145 0
1148 0
-1151 0
-1154 0
1157 0
-1160 0
1163 0
-1166 0
1169 0
-1172 0
-1175 0
1178 0
-1181 0
-1184 0
1187 0
1190 0
-1193 0
-1196 0
-1199 0
1202 0
-1205 0
-1208 0
-1211 0
1214 0
1217 0
-1220 0
-1223 0
1226 0
1229 0
-1232 0
-1235 0
1238 0
-1241 -1242 0
-1241 -718 0
721 -1241 0
-1241 -724 0
727 -1241 0
730 -1241 0
733 -1241 0
736 -1241 0
739 -1241 0
742 -1241 0
745 -1241 0
748 -1241 0
-1241 -751 0
-1241 -754 0
-1241 -757 0
760 -1241 0
763 -1241 0
766 -1241 0
769 -1241 0
772 -1241 0
775 -1241 0
778 -1241 0
-1241 -781 0
784 -1241 0
787 -1241 0
790 -1241 0
793 -1241 0
796 -1241 0
799 -1241 0
-1241 -802 0
-1241 -805 0
808 -1241 0
811 -1241 0
814 -1241 0
817 -1241 0
820 -1241 0
823 -1241 0
826 -1241 0
829 -1241 0
-1241 -832 0
-1241 -835 0
-1241 -838 0
841 -1241 0
844 -1241 0
847 -1241 0
850 -1241 0
853 -1241 0
856 -1241 0
859 -1241 0
862 -1241 0
865 -1241 0
868 -1241 0
871 -1241 0
874 -1241 0
877 -1241 0
880 -1241 0
883 -1241 0
886 -1241 0
889 -1241 0
892 -1241 0
895 -1241 0
898 -1241 0
901 -1241 0
904 -1241 0
907 -1241 0
910 -1241 0
913 -1241 0
916 -1241 0
919 -1241 0
922 -1241 0
-1241 -925 0
-1241 -928 0
-1241 -931 0
934 -1241 0
937 -1241 0
940 -1241 0
943 -1241 0
946 -1241 0
949 -1241 0
-1241 -952 0
955 -1241 0
-1241 -958 0
961 -1241 0
-1241 -964 0
967 -1241 0
-1241 -970 0
-1241 -973 0
976 -1241 0
979 -1241 0
-1241 -982 0
-1241 -985 0
-1241 -988 0
-1241 -991 0
-1241 -994 0
997 -1241 0
1000 -1241 0
-1241 -1003 0
1006 -1241 0
1009 -1241 0
-1241 -1012 0
-1241 -1015 0
-1241 -1018 0
-1241 -1021 0
-1241 -1024 0
1027 -1241 0
1030 -1241 0
1033 -1241 0
-1241 -1036 0
-1241 -1039 0
-1241 -1042 0
-1241 -1045 0
-1241 -1048 0
-1241 -1051 0
1054 -1241 0
-1241 -1057 0
-1241 -1060 0
-1241 -1063 0
1066 -1241 0
1069 -1241 0
1072 -1241 0
-1241 -1075 0
1078 -1241 0
1081 -1241 0
-1241 -1084 0
-1241 -1087 0
1090 -1241 0
-1241 -1093 0
-1241 -1096 0
1099 -1241 0
1102 -1241 0
1105 -1241 0
-1241 -1108 0
1111 -1241 0
-1241 -1114 0
1117 -1241 0
1120 -1241 0
1123 -1241 0
-1241 -1126 0
1129 -1241 0
1132 -1241 0
1135 -1241 0
-1241 -1138 0
-1241 -1141 0
1144 -1241 0
1147 -1241 0
-1241 -1150 0
1153 -1241 0
1156 -1241 0
1159 -1241 0
-1241 -1162 0
1165 -1241 0
1168 -1241 0
-1241 -1171 0
1174 -1241 0
-1241 -1177 0
-1241 -1180 0
1183 -1241 0
-1241 -1186 0
-1241 -1189 0
-1241 -1192 0
-1241 -1195 0
1198 -1241 0
1201 -1241 0
1204 -1241 0
-1241 -1207 0
1210 -1241 0
1213 -1241 0
-1241 -1216 0
1219 -1241 0
-1241 -1222 0
1225 -1241 0
-1241 -1228 0
1231 -1241 0
-1241 -1234 0
1237 -1241 0
1240 -1241 0
-1242 -718 0
-1242 -721 0
-1242 -724 0
727 -1242 0
-1242 -730 0
733 -1242 0
736 -1242 0
739 -1242 0
742 -1242 0
-1242 -745 0
-1242 -748 0
-1242 -751 0
-1242 -754 0
-1242 -757 0
760 -1242 0
763 -1242 0
766 -1242 0
-1242 -769 0
-1242 -772 0
-1242 -775 0
-1242 -778 0
-1242 -781 0
-1242 -784 0
-1242 -787 0
790 -1242 0
-1242 -793 0
796 -1242 0
799 -1242 0
-1242 -802 0
-1242 -805 0
808 -1242 0
-1242 -811 0
-1242 -814 0
-1242 -817 0
-1242 -820 0
-1242 -823 0
826 -1242 0
829 -1242 0
-1242 -832 0
-1242 -835 0
-1242 -838 0
841 -1242 0
844 -1242 0
-1242 -847 0
850 -1242 0
-1242 -853 0
-1242 -856 0
-1242 -859 0
-1242 -862 0
-1242 -865 0
868 -1242 0
871 -1242 0
874 -1242 0
-1242 -877 0
880 -1242 0
-1242 -883 0
-1242 -886 0
-1242 -889 0
-1242 -892 0
895 -1242 0
-1242 -898 0
-1242 -901 0
904 -1242 0
907 -1242 0
-1242 -910 0
913 -1242 0
916 -1242 0
919 -1242 0
-1242 -922 0
-1242 -925 0
-1242 -928 0
-1242 -931 0
934 -1242 0
-1242 -937 0
940 -1242 0
-1242 -943 0
946 -1242 0
949 -1242 0
-1242 -952 0
955 -1242 0
-1242 -958 0
-1242 -961 0
964 -1242 0
967 -1242 0
970 -1242 0
973 -1242 0
-1242 -976 0
979 -1242 0
-1242 -982 0
-1242 -985 0
-1242 -988 0
991 -1242 0
-1242 -994 0
-1242 -997 0
1000 -1242 0
-1242 -1003 0
1006 -1242 0
1009 -1242 0
1012 -1242 0
1015 -1242 0
1018 -1242 0
-1242 -1021 0
1024 -1242 0
1027 -1242 0
1030 -1242 0
1033 -1242 0
-1242 -1036 0
1039 -1242 0
-1242 -1042 0
1045 -1242 0
1048 -1242 0
1051 -1242 0
1054 -1242 0
-1242 -1057 0
1060 -1242 0
1063 -1242 0
-1242 -1066 0
-1242 -1069 0
-1242 -1072 0
1075 -1242 0
-1242 -1078 0
1081 -1242 0
-1242 -1084 0
-1242 -1087 0
1090 -1242 0
1093 -1242 0
1096 -1242 0
1099 -1242 0
1102 -1242 0
-1242 -1105 0
-1242 -1108 0
-1242 -1111 0
1114 -1242 0
-1242 -1117 0
-1242 -1120 0
1123 -1242 0
1126 -1242 0
1129 -1242 0
1132 -1242 0
-1242 -1135 0
1138 -1242 0
1141 -1242 0
1144 -1242 0
1147 -1242 0
1150 -1242 0
-1242 -1153 0
-1242 -1156 0
1159 -1242 0
-1242 -1162 0
1165 -1242 0
-1242 -1168 0
1171 -1242 0
-1242 -1174 0
-1242 -1177 0
1180 -1242 0
-1242 -1183 0
-1242 -1186 0
1189 -1242 0
1192 -1242 0
-1242 -1195 0
-1242 -1198 0
-1242 -1201 0
1204 -1242 0
-1242 -1207 0
-1242 -1210 0
-1242 -1213 0
1216 -1242 0
1219 -1242 0
-1242 -1222 0
-1242 -1225 0
1228 -1242 0
1231 -1242 0
-1242 -1234 0
-1242 -1237 0
1240 -1242 0
1241 1242 0
-1243 0
-1244 0
-1245 0
-1246 0
-1247 0
-1248 0
-1249 0
-1250 0
